numOfMachines = 4;
numOfRobots = 2;
numOfJobs = 6;
maxOperations = 4;
operationsCount = [2,2,2,2,4,4];

operation = [
[<0,0,0>,<1,48,0>,<3,45,1>],
[<0,0,0>,<2,54,0>,<4,45,0>],
[<0,0,0>,<1,60,0>,<2,30,0>],
[<0,0,0>,<3,45,0>,<4,30,1>],
[<0,0,0>,<1,24,0>,<2,30,0>,<3,45,1>,<4,51,0>],
[<0,0,0>,<2,30,0>,<3,45,0>,<4,24,0>,<1,45,0>]
];